(set-logic ALL)
(declare-fun seed0_key2 () String)
(declare-fun seed0_value2 () String)
(assert (and (or (and (and (and (and (and (and (and (and (and (and (and (not (= (ite (= (str.at seed0_value2 0) "\u{c}") 1 0) 0)) (= (ite (= (str.at seed0_value2 0) "\u{b}") 1 0) 0)) (= (ite (= (str.at seed0_value2 0) "\u{d}") 1 0) 0)) (= (ite (= (str.at seed0_value2 0) "\u{a}") 1 0) 0)) (= (ite (= (str.at seed0_value2 0) "\u{9}") 1 0) 0)) (= (ite (= (str.at seed0_value2 0) " ") 1 0) 0)) (= (ite (= (str.len seed0_value2) 0) 1 0) 0)) (not (= (ite (= (str.indexof seed0_value2 "=" 0) (- 1)) 1 0) 0))) (= (ite (not (= (str.indexof seed0_value2 "=" 0) (- 1))) 1 0) 0)) (= (ite (str.contains seed0_value2 ",") 1 0) 0)) (= (ite (= (str.len seed0_value2) 0) 1 0) 0)) (not (= (ite (= seed0_key2 "cache-control") 1 0) 0))) (or (str.< (str.++ seed0_key2 "0kCUjDTWh5GL2v8") (str.++ seed0_key2 "Xb8c36gFIa")) (str.contains (str.++ seed0_key2 "aR6jGQ1bvOeVhHFxWq") (str.++ seed0_key2 "X0KtTCRFvIe9YcpPL")))) (or (not (= (ite (= seed0_key2 "cache-control") 1 0) 0)) (and (str.suffixof (str.++ seed0_key2 "") (str.++ seed0_key2 "FAQGrwdgaKjpzx0Z")) (str.suffixof (str.++ seed0_key2 "ktVxnpQjYhTalBs8") (str.++ seed0_value2 "JFED"))))))
(check-sat)
(exit)